rows = 5;
cols = 8;
max_steps = 12;
problem = array2d(1..rows, 1..cols, 
[
 %1 2 3 4 5 6 7,8,
  2,W,3,W,1,W,W,2, % 1
  W,3,W,W,W,W,4,W, % 2
  4,W,1,W,W,4,W,1, % 3
  W,W,B,2,2,B,W,W, % 4
  W,W,2,W,W,2,W,W, % 5
]);

%sum_points = 14;